
   AbsCon 1.41 (January, 2014) - defaultConfiguration

   
   instance
        framework=CSP  name=Isomorphism-/cluster/gpg/ciaran/sip-benchmarks/benchmarks/si2_m4D_m4D_256/si2_m4D_m256.02/pattern-/cluster/gpg/ciaran/sip-benchmarks/benchmarks/si2_m4D_m4D_256/si2_m4D_m256.02/target
        parameters=/cluster/gpg/ciaran/sip-benchmarks/benchmarks/si2_m4D_m4D_256/si2_m4D_m256.02/pattern,/cluster/gpg/ciaran/sip-benchmarks/benchmarks/si2_m4D_m4D_256/si2_m4D_m256.02/target
      

   loading variables...
        nbVariables=51  nbDomainTypes=1  nbTotalValues=13056  domainSizes=(256:51)
          =>  wckTime=0.182  cpuTime=0.308  mem=10M249

   loading objectives...

   loading constraints...
        nbConstraints=101  nbSpecificConstraints=1  nbExtensionStructures=(1,shared:99)  nbConflictsStructures=(1,shared:99,unbuilt:1)
        degrees=(2:1)(3:15)(4:11)...(7:9)(8:4)(9:1)  arities=(2:100)(51:1)  types=(AllDifferent:1)(ConstraintHardExtensionV-Bits:100)
          =>  wckTime=0.248  cpuTime=0.371  mem=7M501

   INFO : <!-- Start saving the XML representation -->

   INFO : <!-- Stop saving the XML representation of target.xml -->

   Solver SolverBacktrack being built... 
          =>  wckTime=0.446  cpuTime=0.536  mem=24M385

    instantiation X0=202 X1=32 X2=101 X3=18 X4=169 X5=156 X6=56 X7=237 X8=37 X9=173 X10=191 X11=255 X12=217 X13=76 X14=29 X15=127 X16=86 X17=227 X18=210 X19=249 X20=149 X21=90 X22=254 X23=61 X24=221 X25=91 X26=184 X27=114 X28=180 X29=13 X30=253 X31=60 X32=11 X33=199 X34=39 X35=229 X36=235 X37=242 X38=198 X39=116 X40=19 X41=170 X42=110 X43=42 X44=200 X45=189 X46=30 X47=103 X48=216 X49=58 X50=78 

    solution X0=202 X1=32 X2=101 X3=18 X4=169 X5=156 X6=56 X7=237 X8=37 X9=173 X10=191 X11=255 X12=217 X13=76 X14=29 X15=127 X16=86 X17=227 X18=210 X19=249 X20=149 X21=90 X22=254 X23=61 X24=221 X25=91 X26=184 X27=114 X28=180 X29=13 X30=253 X31=60 X32=11 X33=199 X34=39 X35=229 X36=235 X37=242 X38=198 X39=116 X40=19 X41=170 X42=110 X43=42 X44=200 X45=189 X46=30 X47=103 X48=216 X49=58 X50=78 

   
   search
        run=0  nbConstraintChecks=101  depth=(min:0,max:50,avg:1)  nbEffectivePropagations=200  nbRevisions=1071  nbUselessRevisions=989
        nbAssignments=89  nbFailedAssignments=38  nbBacktracks=0  nbVisitedNodes=128  nbRestartNogoods=0  nbFoundSolutions=1
        upperBound=9223372036854775807
          =>  wckTime=0.606  cpuTime=1.102  mem=55M431

   
   global
        nbConstraintChecks=101  nbEffectivePropagations=200  nbRevisions=1071  nbUselessRevisions=989  nbRestartNogoods=0  solvingWckTime=0.606
        expiredTime=no  totalExploration=no  nbFoundSolutions=1  firstSolutionCpuTime=1.1  Stop=REACHED_GOAL
          =>  wckTime=1.052  cpuTime=1.102  mem=55M431

s SATISFIABLE
v X0=202 X1=32 X2=101 X3=18 X4=169 X5=156 X6=56 X7=237 X8=37 X9=173 X10=191 X11=255 X12=217 X13=76 X14=29 X15=127 X16=86 X17=227 X18=210 X19=249 X20=149 X21=90 X22=254 X23=61 X24=221 X25=91 X26=184 X27=114 X28=180 X29=13 X30=253 X31=60 X32=11 X33=199 X34=39 X35=229 X36=235 X37=242 X38=198 X39=116 X40=19 X41=170 X42=110 X43=42 X44=200 X45=189 X46=30 X47=103 X48=216 X49=58 X50=78 
d NODES 89

   totalWckTime=0.948  totalCpuTime=1.103
